# Solution for model count
# Objective value = 9
z#1 0
z#2 1
z#3 0
z#4 0
z#5 0
z#6 0
z#7 0
z#8 0
z#9 1
z#10 1
z#11 0
z#12 0
z#13 0
z#14 0
z#15 1
z#16 1
z#17 1
z#18 0
z#19 0
z#20 1
z#21 1
z#22 0
z#23 1
z#24 0
x#24 0
x#23 1251
x#22 0
x#21 1393
x#20 221
x#19 0
x#18 0
x#17 546
x#16 13
x#15 828
x#14 0
x#13 0
x#12 0
x#11 0
x#10 2754
x#9 51
x#8 0
x#7 0
x#6 0
x#5 0
x#4 0
x#3 0
x#2 2943
x#1 0
